MST02
Position Depot: Random
Horizon for Depot: Small
Position of customers: Mixt
Distribution of the demand: Large
Width of time windows: Tight
Distribution of the service: Large

VEHICLE 
NUMBER 	 CAPACITY 
 9 	 	 609 
 
CUSTOMER
CUST NO. 	 XCOORD.  	 YCOORD. 	 DEMAND 	 READY TIME 	 DUE DATE 	 SERVICE TIME 
 0 	 	 578 	 	 272 	 	 0 	 	 0 	 	 1596 	 	 0 
  1 	 	 980 	 	 443 	 	 28 	 	 311 	 	 480 	 	 147 
  2 	 	 643 	 	 593 	 	 29 	 	 813 	 	 946 	 	 200 
  3 	 	 651 	 	 87 	 	 61 	 	 439 	 	 552 	 	 196 
  4 	 	 676 	 	 429 	 	 5 	 	 657 	 	 723 	 	 112 
  5 	 	 541 	 	 230 	 	 96 	 	 608 	 	 659 	 	 164 
  6 	 	 608 	 	 171 	 	 71 	 	 1034 	 	 1178 	 	 104 
  7 	 	 715 	 	 196 	 	 35 	 	 232 	 	 336 	 	 175 
  8 	 	 683 	 	 399 	 	 23 	 	 450 	 	 536 	 	 109 
  9 	 	 599 	 	 104 	 	 18 	 	 314 	 	 378 	 	 120 
  10 	 	 553 	 	 253 	 	 74 	 	 -73 	 	 104 	 	 160 
  11 	 	 652 	 	 45 	 	 78 	 	 341 	 	 417 	 	 147 
  12 	 	 673 	 	 231 	 	 58 	 	 83 	 	 178 	 	 169 
  13 	 	 958 	 	 396 	 	 3 	 	 950 	 	 1016 	 	 183 
  14 	 	 635 	 	 541 	 	 3 	 	 1511 	 	 1596 	 	 126 
  15 	 	 662 	 	 238 	 	 66 	 	 1231 	 	 1349 	 	 197 
  16 	 	 737 	 	 431 	 	 47 	 	 650 	 	 703 	 	 165 
  17 	 	 619 	 	 49 	 	 2 	 	 577 	 	 652 	 	 163 
  18 	 	 600 	 	 166 	 	 6 	 	 1174 	 	 1352 	 	 162 
  19 	 	 615 	 	 496 	 	 29 	 	 362 	 	 509 	 	 151 
  20 	 	 930 	 	 362 	 	 97 	 	 1411 	 	 1468 	 	 101 
  21 	 	 464 	 	 457 	 	 20 	 	 956 	 	 1097 	 	 195 
  22 	 	 436 	 	 264 	 	 56 	 	 1077 	 	 1261 	 	 178 
  23 	 	 599 	 	 464 	 	 83 	 	 1036 	 	 1191 	 	 176 
  24 	 	 672 	 	 427 	 	 68 	 	 645 	 	 775 	 	 159 
  25 	 	 755 	 	 183 	 	 27 	 	 141 	 	 217 	 	 141 
  26 	 	 815 	 	 433 	 	 99 	 	 736 	 	 850 	 	 108 
  27 	 	 717 	 	 139 	 	 39 	 	 1457 	 	 1540 	 	 115 
  28 	 	 607 	 	 124 	 	 72 	 	 1165 	 	 1238 	 	 130 
  29 	 	 611 	 	 167 	 	 6 	 	 1250 	 	 1328 	 	 117 
  30 	 	 647 	 	 112 	 	 16 	 	 283 	 	 384 	 	 153 
  31 	 	 587 	 	 506 	 	 90 	 	 433 	 	 613 	 	 181 
  32 	 	 802 	 	 629 	 	 98 	 	 1099 	 	 1238 	 	 176 
  33 	 	 625 	 	 366 	 	 76 	 	 513 	 	 565 	 	 156 
  34 	 	 662 	 	 364 	 	 85 	 	 376 	 	 560 	 	 101 
  35 	 	 612 	 	 147 	 	 9 	 	 85 	 	 175 	 	 111 
  36 	 	 704 	 	 168 	 	 56 	 	 1399 	 	 1489 	 	 144 
  37 	 	 728 	 	 461 	 	 67 	 	 1002 	 	 1145 	 	 148 
  38 	 	 595 	 	 40 	 	 60 	 	 1404 	 	 1506 	 	 179 
  39 	 	 748 	 	 173 	 	 98 	 	 1340 	 	 1521 	 	 196 
  40 	 	 784 	 	 218 	 	 17 	 	 1349 	 	 1468 	 	 124 
  41 	 	 638 	 	 154 	 	 14 	 	 443 	 	 565 	 	 180 
  42 	 	 642 	 	 182 	 	 91 	 	 493 	 	 684 	 	 178 
  43 	 	 539 	 	 191 	 	 95 	 	 761 	 	 890 	 	 110 
  44 	 	 671 	 	 642 	 	 55 	 	 1199 	 	 1324 	 	 136 
  45 	 	 642 	 	 648 	 	 20 	 	 365 	 	 419 	 	 150 
  46 	 	 661 	 	 524 	 	 11 	 	 1470 	 	 1596 	 	 134 
  47 	 	 812 	 	 115 	 	 12 	 	 937 	 	 1017 	 	 138 
  48 	 	 624 	 	 21 	 	 89 	 	 1190 	 	 1360 	 	 193 
  49 	 	 672 	 	 377 	 	 67 	 	 1259 	 	 1459 	 	 100 
  50 	 	 548 	 	 233 	 	 27 	 	 646 	 	 825 	 	 141 
  51 	 	 334 	 	 508 	 	 16 	 	 1375 	 	 1449 	 	 164 
  52 	 	 292 	 	 336 	 	 83 	 	 484 	 	 574 	 	 104 
  53 	 	 656 	 	 974 	 	 94 	 	 1174 	 	 1370 	 	 105 
  54 	 	 53 	 	 753 	 	 94 	 	 1023 	 	 1074 	 	 181 
  55 	 	 970 	 	 43 	 	 78 	 	 1249 	 	 1313 	 	 144 
  56 	 	 475 	 	 890 	 	 39 	 	 1468 	 	 1596 	 	 141 
  57 	 	 217 	 	 97 	 	 73 	 	 323 	 	 471 	 	 100 
  58 	 	 748 	 	 222 	 	 31 	 	 95 	 	 194 	 	 155 
  59 	 	 975 	 	 268 	 	 44 	 	 255 	 	 436 	 	 116 
  60 	 	 760 	 	 484 	 	 75 	 	 487 	 	 588 	 	 158 
  61 	 	 999 	 	 839 	 	 22 	 	 1280 	 	 1417 	 	 149 
  62 	 	 337 	 	 873 	 	 70 	 	 1088 	 	 1189 	 	 154 
  63 	 	 919 	 	 713 	 	 45 	 	 486 	 	 613 	 	 197 
  64 	 	 794 	 	 904 	 	 78 	 	 576 	 	 734 	 	 118 
  65 	 	 284 	 	 700 	 	 54 	 	 969 	 	 1148 	 	 156 
  66 	 	 672 	 	 382 	 	 96 	 	 548 	 	 659 	 	 184 
  67 	 	 879 	 	 606 	 	 93 	 	 312 	 	 503 	 	 165 
  68 	 	 22 	 	 419 	 	 40 	 	 1311 	 	 1422 	 	 200 
  69 	 	 794 	 	 691 	 	 100 	 	 563 	 	 697 	 	 181 
  70 	 	 90 	 	 532 	 	 82 	 	 1160 	 	 1257 	 	 106 
  71 	 	 804 	 	 310 	 	 99 	 	 155 	 	 252 	 	 126 
  72 	 	 610 	 	 644 	 	 68 	 	 1116 	 	 1202 	 	 111 
  73 	 	 141 	 	 710 	 	 80 	 	 608 	 	 680 	 	 162 
  74 	 	 879 	 	 641 	 	 96 	 	 977 	 	 1087 	 	 118 
  75 	 	 176 	 	 662 	 	 78 	 	 1174 	 	 1256 	 	 176 
  76 	 	 21 	 	 58 	 	 65 	 	 507 	 	 656 	 	 199 
  77 	 	 32 	 	 597 	 	 40 	 	 690 	 	 848 	 	 178 
  78 	 	 214 	 	 798 	 	 86 	 	 1406 	 	 1596 	 	 153 
  79 	 	 757 	 	 811 	 	 33 	 	 536 	 	 662 	 	 110 
  80 	 	 768 	 	 748 	 	 78 	 	 411 	 	 563 	 	 158 
  81 	 	 137 	 	 786 	 	 70 	 	 625 	 	 744 	 	 135 
  82 	 	 465 	 	 892 	 	 64 	 	 1179 	 	 1313 	 	 142 
  83 	 	 572 	 	 145 	 	 78 	 	 1449 	 	 1511 	 	 137 
  84 	 	 729 	 	 354 	 	 49 	 	 792 	 	 962 	 	 128 
  85 	 	 875 	 	 892 	 	 12 	 	 846 	 	 983 	 	 149 
  86 	 	 13 	 	 106 	 	 21 	 	 878 	 	 981 	 	 108 
  87 	 	 71 	 	 229 	 	 1 	 	 417 	 	 575 	 	 159 
  88 	 	 816 	 	 781 	 	 19 	 	 529 	 	 618 	 	 188 
  89 	 	 75 	 	 553 	 	 81 	 	 477 	 	 633 	 	 176 
  90 	 	 522 	 	 855 	 	 52 	 	 1407 	 	 1501 	 	 190 
  91 	 	 836 	 	 976 	 	 62 	 	 625 	 	 824 	 	 133 
  92 	 	 355 	 	 405 	 	 93 	 	 1286 	 	 1397 	 	 200 
  93 	 	 73 	 	 611 	 	 54 	 	 591 	 	 669 	 	 143 
  94 	 	 831 	 	 291 	 	 90 	 	 149 	 	 309 	 	 175 
  95 	 	 270 	 	 331 	 	 28 	 	 1393 	 	 1559 	 	 144 
  96 	 	 612 	 	 875 	 	 59 	 	 967 	 	 1117 	 	 135 
  97 	 	 167 	 	 445 	 	 94 	 	 935 	 	 1100 	 	 165 
  98 	 	 8 	 	 937 	 	 97 	 	 805 	 	 963 	 	 120 
  99 	 	 984 	 	 775 	 	 23 	 	 578 	 	 711 	 	 181 
  100 	 	 120 	 	 257 	 	 7 	 	 489 	 	 563 	 	 195 
 